NAME : mini-n6-k2
COMMENT : Pequena instância CVRP para teste rápido >>CRIADA PELOS ALUNOS<<
TYPE : CVRP
DIMENSION : 6
EDGE_WEIGHT_TYPE : EUC_2D
CAPACITY : 30
NODE_COORD_SECTION
1 40 40
2 45 45
3 50 40
4 55 45
5 45 35
6 50 30
DEMAND_SECTION
1 0
2 10
3 12
4 8
5 14
6 6
DEPOT_SECTION
1
-1
EOF
